minizinc_experiments/data/A008.dzn
k = 6;
b = 2;
AtomicConstraints =  [|
6, 5|
	3, 5|
	2, 5|
	4, 5|
	4, 6|];
DisjunctiveConstraints =  [||];
SoftAtomicConstraints =  [|
3, 2|
1, 5|];
DirectSuccessors =  [];
